c nIsolatedPIs 0
c maxPI 32
p cnf 171 418
c gate 33 -2 18 0
-2 -33 0
18 -33 0
2 -18 33 0
c gate 34 -1 17 0
-1 -34 0
17 -34 0
1 -17 34 0
c gate 35 -33 -34 0
-33 -35 0
-34 -35 0
33 34 35 0
c gate 36 2 -18 0
2 -36 0
-18 -36 0
-2 18 36 0
c gate 37 3 -19 0
3 -37 0
-19 -37 0
-3 19 37 0
c gate 38 -36 -37 0
-36 -38 0
-37 -38 0
36 37 38 0
c gate 39 -35 38 0
-35 -39 0
38 -39 0
35 -38 39 0
c gate 40 -4 20 0
-4 -40 0
20 -40 0
4 -20 40 0
c gate 41 -3 19 0
-3 -41 0
19 -41 0
3 -19 41 0
c gate 42 -40 -41 0
-40 -42 0
-41 -42 0
40 41 42 0
c gate 43 -39 42 0
-39 -43 0
42 -43 0
39 -42 43 0
c gate 44 5 -21 0
5 -44 0
-21 -44 0
-5 21 44 0
c gate 45 4 -20 0
4 -45 0
-20 -45 0
-4 20 45 0
c gate 46 -44 -45 0
-44 -46 0
-45 -46 0
44 45 46 0
c gate 47 -43 46 0
-43 -47 0
46 -47 0
43 -46 47 0
c gate 48 -6 -22 0
-6 -48 0
-22 -48 0
6 22 48 0
c gate 49 6 22 0
6 -49 0
22 -49 0
-6 -22 49 0
c gate 50 -48 -49 0
-48 -50 0
-49 -50 0
48 49 50 0
c gate 51 -5 21 0
-5 -51 0
21 -51 0
5 -21 51 0
c gate 52 -50 -51 0
-50 -52 0
-51 -52 0
50 51 52 0
c gate 53 -47 52 0
-47 -53 0
52 -53 0
47 -52 53 0
c gate 54 -2 -18 0
-2 -54 0
-18 -54 0
2 18 54 0
c gate 55 1 17 0
1 -55 0
17 -55 0
-1 -17 55 0
c gate 56 -54 55 0
-54 -56 0
55 -56 0
54 -55 56 0
c gate 57 3 19 0
3 -57 0
19 -57 0
-3 -19 57 0
c gate 58 2 18 0
2 -58 0
18 -58 0
-2 -18 58 0
c gate 59 -57 -58 0
-57 -59 0
-58 -59 0
57 58 59 0
c gate 60 -56 59 0
-56 -60 0
59 -60 0
56 -59 60 0
c gate 61 -4 -20 0
-4 -61 0
-20 -61 0
4 20 61 0
c gate 62 -3 -19 0
-3 -62 0
-19 -62 0
3 19 62 0
c gate 63 -61 -62 0
-61 -63 0
-62 -63 0
61 62 63 0
c gate 64 -60 63 0
-60 -64 0
63 -64 0
60 -63 64 0
c gate 65 4 20 0
4 -65 0
20 -65 0
-4 -20 65 0
c gate 66 5 21 0
5 -66 0
21 -66 0
-5 -21 66 0
c gate 67 -65 -66 0
-65 -67 0
-66 -67 0
65 66 67 0
c gate 68 -64 67 0
-64 -68 0
67 -68 0
64 -67 68 0
c gate 69 -5 -21 0
-5 -69 0
-21 -69 0
5 21 69 0
c gate 70 -48 -69 0
-48 -70 0
-69 -70 0
48 69 70 0
c gate 71 -68 70 0
-68 -71 0
70 -71 0
68 -70 71 0
c gate 72 7 -23 0
7 -72 0
-23 -72 0
-7 23 72 0
c gate 73 -7 23 0
-7 -73 0
23 -73 0
7 -23 73 0
c gate 74 -72 -73 0
-72 -74 0
-73 -74 0
72 73 74 0
c gate 75 -49 -74 0
-49 -75 0
-74 -75 0
49 74 75 0
c gate 76 -71 75 0
-71 -76 0
75 -76 0
71 -75 76 0
c gate 77 8 24 0
8 -77 0
24 -77 0
-8 -24 77 0
c gate 78 -8 -24 0
-8 -78 0
-24 -78 0
8 24 78 0
c gate 79 -77 -78 0
-77 -79 0
-78 -79 0
77 78 79 0
c gate 80 76 79 0
76 -80 0
79 -80 0
-76 -79 80 0
c gate 81 -7 -23 0
-7 -81 0
-23 -81 0
7 23 81 0
c gate 82 -77 81 0
-77 -82 0
81 -82 0
77 -81 82 0
c gate 83 -9 -25 0
-9 -83 0
-25 -83 0
9 25 83 0
c gate 84 -78 -83 0
-78 -84 0
-83 -84 0
78 83 84 0
c gate 85 -82 84 0
-82 -85 0
84 -85 0
82 -84 85 0
c gate 86 -11 -27 0
-11 -86 0
-27 -86 0
11 27 86 0
c gate 87 12 -28 0
12 -87 0
-28 -87 0
-12 28 87 0
c gate 88 -12 28 0
-12 -88 0
28 -88 0
12 -28 88 0
c gate 89 -87 -88 0
-87 -89 0
-88 -89 0
87 88 89 0
c gate 90 -86 -89 0
-86 -90 0
-89 -90 0
86 89 90 0
c gate 91 11 27 0
11 -91 0
27 -91 0
-11 -27 91 0
c gate 92 10 26 0
10 -92 0
26 -92 0
-10 -26 92 0
c gate 93 -91 -92 0
-91 -93 0
-92 -93 0
91 92 93 0
c gate 94 9 25 0
9 -94 0
25 -94 0
-9 -25 94 0
c gate 95 -10 -26 0
-10 -95 0
-26 -95 0
10 26 95 0
c gate 96 -94 -95 0
-94 -96 0
-95 -96 0
94 95 96 0
c gate 97 93 96 0
93 -97 0
96 -97 0
-93 -96 97 0
c gate 98 90 97 0
90 -98 0
97 -98 0
-90 -97 98 0
c gate 99 85 98 0
85 -99 0
98 -99 0
-85 -98 99 0
c gate 100 80 99 0
80 -100 0
99 -100 0
-80 -99 100 0
c gate 101 -80 85 0
-80 -101 0
85 -101 0
80 -85 101 0
c gate 102 -94 -101 0
-94 -102 0
-101 -102 0
94 101 102 0
c gate 103 -95 -102 0
-95 -103 0
-102 -103 0
95 102 103 0
c gate 104 93 -103 0
93 -104 0
-103 -104 0
-93 103 104 0
c gate 105 90 -104 0
90 -105 0
-104 -105 0
-90 104 105 0
c gate 106 -14 -30 0
-14 -106 0
-30 -106 0
14 30 106 0
c gate 107 14 30 0
14 -107 0
30 -107 0
-14 -30 107 0
c gate 108 -106 -107 0
-106 -108 0
-107 -108 0
106 107 108 0
c gate 109 -89 108 0
-89 -109 0
108 -109 0
89 -108 109 0
c gate 110 15 -31 0
15 -110 0
-31 -110 0
-15 31 110 0
c gate 111 -15 31 0
-15 -111 0
31 -111 0
15 -31 111 0
c gate 112 -110 -111 0
-110 -112 0
-111 -112 0
110 111 112 0
c gate 113 -16 -32 0
-16 -113 0
-32 -113 0
16 32 113 0
c gate 114 16 32 0
16 -114 0
32 -114 0
-16 -32 114 0
c gate 115 -113 -114 0
-113 -115 0
-114 -115 0
113 114 115 0
c gate 116 13 -29 0
13 -116 0
-29 -116 0
-13 29 116 0
c gate 117 -13 29 0
-13 -117 0
29 -117 0
13 -29 117 0
c gate 118 -116 -117 0
-116 -118 0
-117 -118 0
116 117 118 0
c gate 119 115 -118 0
115 -119 0
-118 -119 0
-115 118 119 0
c gate 120 -112 119 0
-112 -120 0
119 -120 0
112 -119 120 0
c gate 121 109 120 0
109 -121 0
120 -121 0
-109 -120 121 0
c gate 122 105 -121 0
105 -122 0
-121 -122 0
-105 121 122 0
c gate 123 -100 -122 0
-100 -123 0
-122 -123 0
100 122 123 0
c gate 124 -9 25 0
-9 -124 0
25 -124 0
9 -25 124 0
c gate 125 53 -73 0
53 -125 0
-73 -125 0
-53 73 125 0
c gate 126 6 -22 0
6 -126 0
-22 -126 0
-6 22 126 0
c gate 127 -73 126 0
-73 -127 0
126 -127 0
73 -126 127 0
c gate 128 -72 -127 0
-72 -128 0
-127 -128 0
72 127 128 0
c gate 129 -125 128 0
-125 -129 0
128 -129 0
125 -128 129 0
c gate 130 -79 -129 0
-79 -130 0
-129 -130 0
79 129 130 0
c gate 131 8 -24 0
8 -131 0
-24 -131 0
-8 24 131 0
c gate 132 -83 -94 0
-83 -132 0
-94 -132 0
83 94 132 0
c gate 133 -131 -132 0
-131 -133 0
-132 -133 0
131 132 133 0
c gate 134 -130 133 0
-130 -134 0
133 -134 0
130 -133 134 0
c gate 135 -124 -134 0
-124 -135 0
-134 -135 0
124 134 135 0
c gate 136 -10 26 0
-10 -136 0
26 -136 0
10 -26 136 0
c gate 137 135 -136 0
135 -137 0
-136 -137 0
-135 136 137 0
c gate 138 -86 -91 0
-86 -138 0
-91 -138 0
86 91 138 0
c gate 139 10 -26 0
10 -139 0
-26 -139 0
-10 26 139 0
c gate 140 -138 -139 0
-138 -140 0
-139 -140 0
138 139 140 0
c gate 141 -137 140 0
-137 -141 0
140 -141 0
137 -140 141 0
c gate 142 53 -74 0
53 -142 0
-74 -142 0
-53 74 142 0
c gate 143 -53 -123 0
-53 -143 0
-123 -143 0
53 123 143 0
c gate 144 -142 -143 0
-142 -144 0
-143 -144 0
142 143 144 0
c gate 145 79 128 0
79 -145 0
128 -145 0
-79 -128 145 0
c gate 146 -129 145 0
-129 -146 0
145 -146 0
129 -145 146 0
c gate 147 144 -146 0
144 -147 0
-146 -147 0
-144 146 147 0
c gate 148 -130 -147 0
-130 -148 0
-147 -148 0
130 147 148 0
c gate 149 -92 -95 0
-92 -149 0
-95 -149 0
92 95 149 0
c gate 150 -132 -149 0
-132 -150 0
-149 -150 0
132 149 150 0
c gate 151 130 -150 0
130 -151 0
-150 -151 0
-130 150 151 0
c gate 152 -148 -151 0
-148 -152 0
-151 -152 0
148 151 152 0
c gate 153 138 -149 0
138 -153 0
-149 -153 0
-138 149 153 0
c gate 154 133 153 0
133 -154 0
153 -154 0
-133 -153 154 0
c gate 155 135 154 0
135 -155 0
154 -155 0
-135 -154 155 0
c gate 156 152 -155 0
152 -156 0
-155 -156 0
-152 155 156 0
c gate 157 -141 -156 0
-141 -157 0
-156 -157 0
141 156 157 0
c gate 158 89 -108 0
89 -158 0
-108 -158 0
-89 108 158 0
c gate 159 -115 118 0
-115 -159 0
118 -159 0
115 -118 159 0
c gate 160 112 159 0
112 -160 0
159 -160 0
-112 -159 160 0
c gate 161 158 160 0
158 -161 0
160 -161 0
-158 -160 161 0
c gate 162 141 161 0
141 -162 0
161 -162 0
-141 -161 162 0
c gate 163 -157 -162 0
-157 -163 0
-162 -163 0
157 162 163 0
c gate 164 -76 -105 0
-76 -164 0
-105 -164 0
76 105 164 0
c gate 165 -163 -164 0
-163 -165 0
-164 -165 0
163 164 165 0
c gate 166 123 -165 0
123 -166 0
-165 -166 0
-123 165 166 0
c gate 167 -123 -163 0
-123 -167 0
-163 -167 0
123 163 167 0
c gate 168 -166 -167 0
-166 -168 0
-167 -168 0
166 167 168 0
c gate 169 -53 -168 0
-53 -169 0
-168 -169 0
53 168 169 0
c gate 170 53 -163 0
53 -170 0
-163 -170 0
-53 163 170 0
c gate 171 -169 -170 0
-169 -171 0
-170 -171 0
169 170 171 0
c PO
171 0
